(set-logic QF_S)
(declare-fun var_0xINPUT_155090 () String)
(assert (and (= (len var_0xINPUT_155090) 0) (= (len var_0xINPUT_155090) 0) (not (= var_0xINPUT_155090 "Example:")) (not (= var_0xINPUT_155090 "CQALcCP5TB"))))
(check-sat var_0xINPUT_155090)